c Result of efficient AIG-to-CNF conversion using package CNF
p cnf 397 1422
-2 -3 330 0
-2 -228 330 0
-2 361 330 0
2 -330 0
2 -361 3 228 0
3 -361 4 39 0
3 -361 -27 39 0
-3 -39 0
-3 361 0
-3 -4 27 0
-4 361 8 0
-4 -361 5 0
4 -361 -5 0
4 361 -8 0
5 362 -6 0
-5 -362 0
-5 6 0
6 363 -7 0
-6 -363 0
-6 7 0
-7 395 396 0
-7 364 -395 -396 0
-7 -364 396 0
7 -364 -396 0
7 395 -396 0
7 364 -395 396 0
8 362 -9 0
8 -362 -21 0
-8 -362 21 0
-8 362 9 0
9 363 -10 0
9 -363 -19 0
-9 -363 19 0
-9 363 10 0
10 -364 -18 0
10 364 -387 11 0
10 364 387 -11 0
-10 -364 18 0
-10 364 -387 -11 0
-10 364 387 11 0
-11 388 12 0
11 -388 0
11 -12 0
-12 389 13 0
12 -389 0
12 -13 0
-13 390 14 0
13 -390 0
13 -14 0
-14 391 15 0
14 -391 0
14 -15 0
-15 392 16 0
15 -392 0
15 -16 0
-16 393 17 0
16 -393 0
16 -17 0
-17 394 395 396 0
17 -394 0
17 -396 0
17 -395 0
18 -388 12 0
18 388 -12 0
-18 388 12 0
-18 -388 -12 0
19 -364 -20 0
19 364 -389 13 0
19 364 389 -13 0
-19 -364 20 0
-19 364 -389 -13 0
-19 364 389 13 0
20 -390 14 0
20 390 -14 0
-20 390 14 0
-20 -390 -14 0
21 363 -22 0
21 -363 -24 0
-21 -363 24 0
-21 363 22 0
22 -364 -23 0
22 364 -391 15 0
22 364 391 -15 0
-22 -364 23 0
-22 364 -391 -15 0
-22 364 391 15 0
23 -392 16 0
23 392 -16 0
-23 392 16 0
-23 -392 -16 0
24 364 -26 0
24 -364 394 -25 0
24 -364 -394 25 0
-24 364 26 0
-24 -364 -394 -25 0
-24 -364 394 25 0
-25 395 396 0
25 -395 0
25 -396 0
26 -393 17 0
26 393 -17 0
-26 393 17 0
-26 -393 -17 0
-27 360 28 0
27 -360 0
27 -28 0
-28 29 35 37 38 0
28 -38 0
28 -29 0
28 -37 0
28 -35 0
-29 357 358 30 32 0
29 -357 0
29 -32 0
29 -30 0
29 -358 0
-30 349 355 356 31 0
30 -31 0
30 -356 0
30 -349 0
30 -355 0
-31 353 354 359 0
31 -353 0
31 -359 0
31 -354 0
-32 345 346 33 34 0
32 -345 0
32 -34 0
32 -33 0
32 -346 0
-33 350 351 352 0
33 -350 0
33 -352 0
33 -351 0
-34 341 342 347 348 0
34 -348 0
34 -347 0
34 -341 0
34 -342 0
-35 339 343 344 36 0
35 -36 0
35 -344 0
35 -339 0
35 -343 0
-36 337 338 0
36 -337 0
36 -338 0
-37 333 340 0
37 -333 0
37 -340 0
-38 334 335 336 0
38 -334 0
38 -336 0
38 -335 0
-39 40 189 215 218 0
39 -218 0
39 -40 0
39 -189 0
39 -215 0
-40 -28 93 152 0
-40 41 93 152 0
40 -152 0
40 -93 0
40 28 -41 0
-41 360 74 0
-41 -360 42 0
-41 360 -54 0
41 -360 -42 0
41 360 54 -74 0
42 361 -43 0
42 -361 -53 0
-42 -361 53 0
-42 361 43 0
43 362 -44 0
43 -362 -9 0
-43 -362 9 0
-43 362 44 0
44 363 -45 0
44 -363 -51 0
-44 -363 51 0
-44 363 45 0
45 -364 -50 0
45 364 -383 46 0
45 364 383 -46 0
-45 -364 50 0
-45 364 -383 -46 0
-45 364 383 46 0
-46 384 47 0
46 -384 0
46 -47 0
-47 385 48 0
47 -385 0
47 -48 0
-48 386 49 0
48 -386 0
48 -49 0
-49 387 11 0
49 -387 0
49 -11 0
50 -384 47 0
50 384 -47 0
-50 384 47 0
-50 -384 -47 0
51 -364 -52 0
51 364 -385 48 0
51 364 385 -48 0
-51 -364 52 0
-51 364 -385 -48 0
-51 364 385 48 0
52 -386 49 0
52 386 -49 0
-52 386 49 0
-52 -386 -49 0
53 362 -21 0
53 -362 -6 0
-53 -362 6 0
-53 362 21 0
54 -361 55 0
-54 361 0
-54 -55 0
55 362 -56 0
55 -362 -69 0
-55 -362 69 0
-55 362 56 0
56 363 -57 0
56 -363 -67 0
-56 -363 67 0
-56 363 57 0
57 -364 -66 0
57 364 -375 58 0
57 364 375 -58 0
-57 -364 66 0
-57 364 -375 -58 0
-57 364 375 58 0
-58 376 59 0
58 -376 0
58 -59 0
-59 377 60 0
59 -377 0
59 -60 0
-60 378 61 0
60 -378 0
60 -61 0
-61 379 62 0
61 -379 0
61 -62 0
-62 380 63 0
62 -380 0
62 -63 0
-63 381 64 0
63 -381 0
63 -64 0
-64 382 65 0
64 -382 0
64 -65 0
-65 383 46 0
65 -383 0
65 -46 0
66 -376 59 0
66 376 -59 0
-66 376 59 0
-66 -376 -59 0
67 -364 -68 0
67 364 -377 60 0
67 364 377 -60 0
-67 -364 68 0
-67 364 -377 -60 0
-67 364 377 60 0
68 -378 61 0
68 378 -61 0
-68 378 61 0
-68 -378 -61 0
69 363 -70 0
69 -363 -72 0
-69 -363 72 0
-69 363 70 0
70 -364 -71 0
70 364 -379 62 0
70 364 379 -62 0
-70 -364 71 0
-70 364 -379 -62 0
-70 364 379 62 0
71 -380 63 0
71 380 -63 0
-71 380 63 0
-71 -380 -63 0
72 -364 -73 0
72 364 -381 64 0
72 364 381 -64 0
-72 -364 73 0
-72 364 -381 -64 0
-72 364 381 64 0
73 -382 65 0
73 382 -65 0
-73 382 65 0
-73 -382 -65 0
-74 361 -362 88 0
-74 361 362 75 0
74 -361 0
74 -362 -88 0
74 362 -75 0
-75 363 84 0
-75 -363 76 0
75 -363 -76 0
75 363 -84 0
76 -364 -83 0
76 364 -369 77 0
76 364 369 -77 0
-76 -364 83 0
-76 364 -369 -77 0
-76 364 369 77 0
-77 370 78 0
77 -370 0
77 -78 0
-78 371 79 0
78 -371 0
78 -79 0
-79 372 80 0
79 -372 0
79 -80 0
-80 373 81 0
80 -373 0
80 -81 0
-81 374 82 0
81 -374 0
81 -82 0
-82 375 58 0
82 -375 0
82 -58 0
83 -370 78 0
83 370 -78 0
-83 370 78 0
-83 -370 -78 0
84 -364 -87 0
84 364 -367 85 0
84 364 367 -85 0
-84 -364 87 0
-84 364 -367 -85 0
-84 364 367 85 0
-85 368 86 0
85 -368 0
85 -86 0
-86 369 77 0
86 -369 0
86 -77 0
87 -368 86 0
87 368 -86 0
-87 368 86 0
-87 -368 -86 0
88 363 -89 0
88 -363 -91 0
-88 -363 91 0
-88 363 89 0
89 -364 -90 0
89 364 -371 79 0
89 364 371 -79 0
-89 -364 90 0
-89 364 -371 -79 0
-89 364 371 79 0
90 -372 80 0
90 372 -80 0
-90 372 80 0
-90 -372 -80 0
91 -364 -92 0
91 364 -373 81 0
91 364 373 -81 0
-91 -364 92 0
-91 364 -373 -81 0
-91 364 373 81 0
92 -374 82 0
92 374 -82 0
-92 374 82 0
-92 -374 -82 0
-93 -28 112 0
-93 94 112 116 0
93 -112 0
93 28 -116 0
93 28 -94 0
-94 360 106 0
-94 -360 95 0
-94 360 -102 0
94 -360 -95 0
94 360 102 -106 0
95 361 -96 0
95 -361 -99 0
-95 -361 99 0
-95 361 96 0
96 362 -97 0
96 -362 -98 0
-96 -362 98 0
-96 362 97 0
97 -363 -45 0
97 363 -72 0
-97 363 72 0
-97 -363 45 0
98 363 -51 0
98 -363 -10 0
-98 -363 10 0
-98 363 51 0
99 362 -100 0
99 -362 -101 0
-99 -362 101 0
-99 362 100 0
100 363 -19 0
100 -363 -22 0
-100 -363 22 0
-100 363 19 0
101 363 -24 0
101 -363 -7 0
-101 -363 7 0
-101 363 24 0
102 -361 103 0
-102 361 0
-102 -103 0
103 362 -104 0
103 -362 -105 0
-103 -362 105 0
-103 362 104 0
104 -363 -57 0
104 363 -91 0
-104 363 91 0
-104 -363 57 0
105 363 -67 0
105 -363 -70 0
-105 -363 70 0
-105 363 67 0
-106 361 -362 111 0
-106 361 362 107 0
106 -361 0
106 -362 -111 0
106 362 -107 0
-107 363 108 0
-107 -363 84 0
107 -363 -84 0
107 363 -108 0
108 366 -109 110 0
108 366 109 -110 0
108 364 -109 110 0
108 -366 109 110 0
-108 -109 -110 0
-108 -364 -366 -109 0
-108 -366 -110 0
-108 366 109 110 0
-109 367 85 0
109 -367 0
109 -85 0
110 364 -365 0
-110 -364 0
-110 365 0
111 363 -76 0
111 -363 -89 0
-111 -363 89 0
-111 363 76 0
112 360 28 -113 0
112 -360 28 -4 0
-112 -28 0
-112 -360 4 0
-112 360 113 0
113 -114 -115 0
113 361 -115 0
-113 115 0
-113 -361 114 0
114 -362 -44 0
114 362 -69 0
-114 362 69 0
-114 -362 44 0
-115 361 -362 56 0
-115 361 362 88 0
115 -361 0
115 -362 -56 0
115 362 -88 0
-116 -360 117 0
-116 360 141 0
-116 360 -129 0
116 -360 -117 0
116 360 129 -141 0
-117 361 119 0
-117 -361 118 0
117 -361 -118 0
117 361 -119 0
118 362 363 364 -396 0
-118 396 0
-118 -364 0
-118 -362 0
-118 -363 0
119 362 -120 0
119 -362 -125 0
-119 -362 125 0
-119 362 120 0
120 363 -121 0
120 -363 -123 0
-120 -363 123 0
-120 363 121 0
121 -364 -122 0
121 364 -388 12 0
121 364 388 -12 0
-121 -364 122 0
-121 364 -388 -12 0
-121 364 388 12 0
122 -389 13 0
122 389 -13 0
-122 389 13 0
-122 -389 -13 0
123 -364 -124 0
123 364 -390 14 0
123 364 390 -14 0
-123 -364 124 0
-123 364 -390 -14 0
-123 364 390 14 0
124 -391 15 0
124 391 -15 0
-124 391 15 0
-124 -391 -15 0
125 363 -126 0
125 -363 -127 0
-125 -363 127 0
-125 363 126 0
126 -364 -26 0
126 364 -392 16 0
126 364 392 -16 0
-126 -364 26 0
-126 364 -392 -16 0
-126 364 392 16 0
127 364 -128 0
127 -364 395 -396 0
127 -364 -395 396 0
-127 364 128 0
-127 -364 -395 -396 0
-127 -364 395 396 0
128 -394 25 0
128 394 -25 0
-128 394 25 0
-128 -394 -25 0
129 -361 130 0
-129 361 0
-129 -130 0
130 362 -131 0
130 -362 -136 0
-130 -362 136 0
-130 362 131 0
131 363 -132 0
131 -363 -134 0
-131 -363 134 0
-131 363 132 0
132 -364 -133 0
132 364 -380 63 0
132 364 380 -63 0
-132 -364 133 0
-132 364 -380 -63 0
-132 364 380 63 0
133 -381 64 0
133 381 -64 0
-133 381 64 0
-133 -381 -64 0
134 -364 -135 0
134 364 -382 65 0
134 364 382 -65 0
-134 -364 135 0
-134 364 -382 -65 0
-134 364 382 65 0
135 -383 46 0
135 383 -46 0
-135 383 46 0
-135 -383 -46 0
136 363 -137 0
136 -363 -139 0
-136 -363 139 0
-136 363 137 0
137 -364 -138 0
137 364 -384 47 0
137 364 384 -47 0
-137 -364 138 0
-137 364 -384 -47 0
-137 364 384 47 0
138 -385 48 0
138 385 -48 0
-138 385 48 0
-138 -385 -48 0
139 -364 -140 0
139 364 -386 49 0
139 364 386 -49 0
-139 -364 140 0
-139 364 -386 -49 0
-139 364 386 49 0
140 -387 11 0
140 387 -11 0
-140 387 11 0
-140 -387 -11 0
-141 361 -362 147 0
-141 361 362 142 0
141 -361 0
141 -362 -147 0
141 362 -142 0
142 363 -143 0
142 -363 -145 0
-142 -363 145 0
-142 363 143 0
143 -364 -144 0
143 364 -372 80 0
143 364 372 -80 0
-143 -364 144 0
-143 364 -372 -80 0
-143 364 372 80 0
144 -373 81 0
144 373 -81 0
-144 373 81 0
-144 -373 -81 0
145 -364 -146 0
145 364 -374 82 0
145 364 374 -82 0
-145 -364 146 0
-145 364 -374 -82 0
-145 364 374 82 0
146 -375 58 0
146 375 -58 0
-146 375 58 0
-146 -375 -58 0
147 363 -148 0
147 -363 -150 0
-147 -363 150 0
-147 363 148 0
148 -364 -149 0
148 364 -376 59 0
148 364 376 -59 0
-148 -364 149 0
-148 364 -376 -59 0
-148 364 376 59 0
149 -377 60 0
149 377 -60 0
-149 377 60 0
-149 -377 -60 0
150 -364 -151 0
150 364 -378 61 0
150 364 378 -61 0
-150 -364 151 0
-150 364 -378 -61 0
-150 364 378 61 0
151 -379 62 0
151 379 -62 0
-151 379 62 0
-151 -379 -62 0
-152 -28 168 0
-152 153 156 168 0
152 -168 0
152 28 -153 0
152 28 -156 0
-153 360 155 0
-153 154 155 0
153 -155 0
153 -360 -154 0
154 361 -99 0
-154 -361 0
-154 99 0
155 360 361 -103 0
155 360 -361 -96 0
-155 -360 0
-155 -361 96 0
-155 361 103 0
-156 360 161 0
-156 157 161 0
156 -161 0
156 -360 -157 0
157 361 -158 0
-157 -361 0
-157 158 0
158 362 -159 0
158 -362 -160 0
-158 -362 160 0
-158 362 159 0
159 363 -123 0
159 -363 -126 0
-159 -363 126 0
-159 363 123 0
-160 -363 -364 0
-160 363 127 0
-160 -363 396 0
160 363 -127 0
160 -363 364 -396 0
161 360 -361 -165 0
161 360 361 -162 0
-161 -360 0
-161 -361 165 0
-161 361 162 0
162 362 -163 0
162 -362 -164 0
-162 -362 164 0
-162 362 163 0
163 363 -145 0
163 -363 -148 0
-163 -363 148 0
-163 363 145 0
164 -363 -132 0
164 363 -150 0
-164 363 150 0
-164 -363 132 0
165 362 -166 0
165 -362 -167 0
-165 -362 167 0
-165 362 166 0
166 363 -134 0
166 -363 -137 0
-166 -363 137 0
-166 363 134 0
167 -363 -121 0
167 363 -139 0
-167 363 139 0
-167 -363 121 0
-168 -28 176 0
-168 169 174 176 0
168 -176 0
168 28 -169 0
168 28 -174 0
-169 170 171 0
-169 -361 171 0
-169 360 171 0
169 -171 0
169 -360 361 -170 0
170 362 -160 0
-170 -362 0
-170 160 0
171 360 -361 -173 0
171 360 361 -172 0
-171 -360 0
-171 -361 173 0
-171 361 172 0
172 362 -164 0
172 -362 -166 0
-172 -362 166 0
-172 362 164 0
173 -362 -159 0
173 362 -167 0
-173 362 167 0
-173 -362 159 0
-174 5 175 0
-174 -361 175 0
-174 360 175 0
174 -175 0
174 -360 361 -5 0
175 360 361 -114 0
175 360 -361 -8 0
-175 -360 0
-175 -361 8 0
-175 361 114 0
-176 42 177 185 0
-176 -27 177 185 0
176 -185 0
176 -177 0
176 -42 27 0
-177 -27 0
-177 178 181 0
177 27 -181 0
177 27 -178 0
-178 361 180 0
-178 -361 179 0
178 -361 -179 0
178 361 -180 0
179 362 -101 0
-179 -362 0
-179 101 0
180 362 -98 0
180 -362 -100 0
-180 -362 100 0
-180 362 98 0
181 361 -182 0
181 -361 -183 0
-181 -361 183 0
-181 361 182 0
182 -362 -120 0
182 362 -136 0
-182 362 136 0
-182 -362 120 0
-183 362 125 0
-183 -362 184 0
183 -362 -184 0
183 362 -125 0
184 363 364 -396 0
-184 396 0
-184 -364 0
-184 -363 0
-185 -27 186 0
-185 95 117 186 0
185 -186 0
185 -95 27 0
185 -117 27 0
-186 -27 0
-186 187 188 0
186 27 -188 0
186 27 -187 0
-187 361 173 0
-187 -361 170 0
187 -361 -170 0
187 361 -173 0
188 -361 -158 0
188 361 -165 0
-188 361 165 0
-188 -361 158 0
-189 -28 203 0
-189 190 199 203 0
189 -203 0
189 28 -190 0
189 28 -199 0
-190 360 193 0
-190 -360 181 0
-190 360 -191 0
190 -360 -181 0
190 360 191 -193 0
191 -361 192 0
-191 361 0
-191 -192 0
192 -362 -131 0
192 362 -147 0
-192 362 147 0
-192 -362 131 0
-193 361 362 194 0
-193 361 -362 142 0
193 -361 0
193 -362 -142 0
193 362 -194 0
-194 363 197 0
-194 -363 195 0
194 -363 -195 0
194 363 -197 0
195 -364 -196 0
195 364 -370 78 0
195 364 370 -78 0
-195 -364 196 0
-195 364 -370 -78 0
-195 364 370 78 0
196 -371 79 0
196 371 -79 0
-196 371 79 0
-196 -371 -79 0
197 -364 -198 0
197 364 -368 86 0
197 364 368 -86 0
-197 -364 198 0
-197 364 -368 -86 0
-197 364 368 86 0
198 -369 77 0
198 369 -77 0
-198 369 77 0
-198 -369 -77 0
-199 -360 187 0
-199 360 201 0
-199 360 -200 0
199 -360 -187 0
199 360 200 -201 0
200 -361 172 0
-200 361 0
-200 -172 0
-201 361 -362 163 0
-201 361 362 202 0
201 -361 0
201 -362 -163 0
201 362 -202 0
202 -363 -143 0
202 363 -195 0
-202 363 195 0
-202 -363 143 0
-203 -27 205 206 0
-203 204 205 206 0
203 -206 0
203 -205 0
203 27 -204 0
204 361 -53 0
-204 -361 0
-204 53 0
-205 -360 0
-205 -28 0
-205 154 157 0
205 360 28 -154 0
205 360 28 -157 0
-206 -28 0
-206 207 209 212 0
206 28 -212 0
206 28 -207 0
206 28 -209 0
-207 360 208 0
-207 204 208 0
207 -208 0
207 -360 -204 0
208 360 361 -55 0
208 360 -361 -43 0
-208 -360 0
-208 -361 43 0
-208 361 55 0
-209 360 211 0
-209 210 211 0
209 -211 0
209 -360 -210 0
210 361 -183 0
-210 -361 0
-210 183 0
211 360 361 -192 0
211 360 -361 -182 0
-211 -360 0
-211 -361 182 0
-211 361 192 0
-212 179 213 0
-212 -361 213 0
-212 360 213 0
212 -213 0
212 -360 361 -179 0
213 360 361 -214 0
213 360 -361 -180 0
-213 -360 0
-213 -361 180 0
-213 361 214 0
214 -362 -97 0
214 362 -105 0
-214 362 105 0
-214 -362 97 0
215 -360 28 217 0
215 28 -216 217 0
-215 -28 0
-215 -217 0
-215 360 216 0
216 -361 -119 0
216 361 -130 0
-216 361 130 0
-216 -361 119 0
217 -360 -361 0
217 -360 118 0
-217 360 0
-217 361 -118 0
-218 -28 0
-218 219 220 225 0
218 28 -219 0
218 28 -225 0
218 28 -220 0
219 -360 -188 0
-219 360 0
-219 188 0
220 360 361 -221 0
220 360 -361 -162 0
-220 -360 0
-220 -361 162 0
-220 361 221 0
221 -362 -202 0
221 362 -222 0
-221 362 222 0
-221 -362 202 0
222 -363 -197 0
222 363 -223 0
-222 -363 197 0
-222 363 223 0
-223 364 224 0
-223 -364 -367 -85 0
-223 -364 367 85 0
223 364 -224 0
223 -364 367 -85 0
223 -364 -367 85 0
224 -366 109 0
224 366 -109 0
-224 366 109 0
-224 -366 -109 0
-225 -360 178 0
-225 360 227 0
-225 360 -226 0
225 -360 -178 0
225 360 226 -227 0
226 -361 214 0
-226 361 0
-226 -214 0
-227 361 -362 104 0
-227 361 362 111 0
227 -361 0
227 -362 -104 0
227 362 -111 0
228 28 -313 0
228 360 28 -229 0
-228 -28 0
-228 -360 313 0
-228 229 313 0
-229 240 256 0
-229 230 -234 256 0
229 -256 0
229 -230 -240 0
229 234 -240 0
230 362 -231 0
-230 -362 0
-230 231 0
231 363 -232 0
231 -363 -233 0
-231 -363 233 0
-231 363 232 0
232 364 -393 0
232 -364 -394 0
-232 -364 394 0
-232 364 393 0
-233 -364 396 0
-233 364 395 0
233 364 -395 0
233 -364 -396 0
234 -361 235 237 0
-234 361 0
-234 -237 0
-234 -235 0
235 362 -236 0
-235 -362 0
-235 236 0
236 363 -364 -396 0
236 363 364 -395 0
-236 -363 0
-236 -364 396 0
-236 364 395 0
237 362 -238 0
-237 -362 0
-237 238 0
-238 -363 -364 0
-238 363 239 0
-238 -363 396 0
238 363 -239 0
238 -363 364 -396 0
239 364 -394 0
239 -364 -395 0
-239 -364 395 0
-239 364 394 0
-240 241 251 0
240 -241 0
240 -251 0
-241 361 242 0
241 -361 0
241 -242 0
242 362 -247 0
242 -362 -243 0
-242 -362 243 0
-242 362 247 0
-243 -363 244 0
-243 363 245 246 0
243 363 -246 0
243 -363 -244 0
243 363 -245 0
-244 -364 393 394 0
-244 364 392 393 0
244 -393 0
244 364 -392 0
244 -364 -394 0
245 364 -391 0
245 -364 -392 0
-245 -364 392 0
-245 364 391 0
246 364 -390 0
246 -364 -391 0
-246 -364 391 0
-246 364 390 0
-247 -363 248 0
-247 363 249 250 0
247 363 -250 0
247 -363 -248 0
247 363 -249 0
-248 -364 389 390 0
-248 364 388 389 0
248 -389 0
248 364 -388 0
248 -364 -390 0
249 364 -386 0
249 -364 -387 0
-249 -364 387 0
-249 364 386 0
250 364 -387 0
250 -364 -388 0
-250 -364 388 0
-250 364 387 0
251 362 -252 0
251 -362 -254 0
-251 -362 254 0
-251 362 252 0
252 -363 -250 0
252 363 -253 0
-252 363 253 0
-252 -363 250 0
253 364 -385 0
253 -364 -386 0
-253 -364 386 0
-253 364 385 0
254 -363 -245 0
254 363 -255 0
-254 363 255 0
-254 -363 245 0
255 364 -389 0
255 -364 -390 0
-255 -364 390 0
-255 364 389 0
256 -257 -282 0
256 -118 -282 0
256 277 -282 0
-256 282 0
-256 118 257 -277 0
-257 -362 258 261 0
-257 362 261 274 0
257 -261 0
257 362 -274 0
257 -362 -258 0
258 -363 -259 0
258 363 -260 0
-258 363 260 0
-258 -363 259 0
259 364 -379 0
259 -364 -380 0
-259 -364 380 0
-259 364 379 0
260 364 -377 0
260 -364 -378 0
-260 -364 378 0
-260 364 377 0
-261 -362 262 0
-261 362 270 258 0
261 362 -258 0
261 -362 -262 0
261 362 -270 0
-262 263 268 0
262 -263 0
262 -268 0
-263 364 380 264 0
-263 -364 381 264 0
263 -264 0
263 364 -380 0
263 -364 -381 0
264 -363 -266 0
264 363 -265 0
264 -363 -267 0
-264 363 265 0
-264 -363 266 267 0
-265 -364 379 380 0
-265 364 378 379 0
265 -379 0
265 364 -378 0
265 -364 -380 0
266 364 -382 0
266 -364 -383 0
-266 -364 383 0
-266 364 382 0
267 364 -381 0
267 -364 -382 0
-267 -364 382 0
-267 364 381 0
268 363 -267 0
268 -363 -269 0
-268 -363 269 0
-268 363 267 0
269 364 -383 0
269 -364 -384 0
-269 -364 384 0
-269 364 383 0
-270 364 376 271 0
-270 -364 377 271 0
270 -271 0
270 364 -376 0
270 -364 -377 0
271 -363 -272 0
271 363 -273 0
271 -363 -260 0
-271 363 273 0
-271 -363 272 260 0
272 364 -378 0
272 -364 -379 0
-272 -364 379 0
-272 364 378 0
-273 -364 375 376 0
-273 364 374 375 0
273 -375 0
273 364 -374 0
273 -364 -376 0
274 -363 -275 0
274 363 -276 0
-274 363 276 0
-274 -363 275 0
275 364 -375 0
275 -364 -376 0
-275 -364 376 0
-275 364 375 0
276 364 -373 0
276 -364 -374 0
-276 -364 374 0
-276 364 373 0
277 -361 278 281 0
-277 361 0
-277 -278 0
-277 -281 0
-278 362 279 0
-278 -362 184 0
278 -362 -184 0
278 362 -279 0
279 -363 -239 0
279 363 -280 0
-279 363 280 0
-279 -363 239 0
280 364 -392 0
280 -364 -393 0
-280 -364 393 0
-280 364 392 0
281 -362 -236 0
281 362 -243 0
281 -362 -238 0
-281 362 243 0
-281 -362 236 238 0
-282 283 304 308 310 0
282 -283 0
282 -310 0
282 -308 0
282 -304 0
283 -287 295 0
283 -284 295 0
283 -290 295 0
-283 -295 0
-283 284 287 290 0
284 363 -286 0
284 -363 -285 0
-284 -363 285 0
-284 363 286 0
-285 -364 368 0
-285 364 367 0
285 364 -367 0
285 -364 -368 0
-286 -364 366 0
-286 364 365 0
286 364 -365 0
286 -364 -366 0
-287 362 288 0
287 -362 0
287 -288 0
288 -363 -249 0
288 363 -289 0
-288 363 289 0
-288 -363 249 0
289 364 -384 0
289 -364 -385 0
-289 -364 385 0
-289 364 384 0
-290 363 293 0
-290 -363 291 292 0
290 -363 -292 0
290 363 -293 0
290 -363 -291 0
-291 -364 369 370 0
-291 364 368 369 0
291 -369 0
291 364 -368 0
291 -364 -370 0
292 364 -370 0
292 -364 -371 0
-292 -364 371 0
-292 364 370 0
-293 364 368 294 0
-293 368 369 294 0
293 -294 0
293 -368 0
293 -364 -369 0
-294 -364 367 0
-294 366 367 0
294 -367 0
294 364 -366 0
295 274 296 299 -301 0
-295 301 0
-295 -299 0
-295 -274 0
-295 -296 0
296 -363 -276 0
296 363 -297 0
296 -363 -298 0
-296 363 297 0
-296 -363 276 298 0
-297 -364 371 372 0
-297 364 370 371 0
297 -371 0
297 364 -370 0
297 -364 -372 0
298 364 -372 0
298 -364 -373 0
-298 -364 373 0
-298 364 372 0
299 -363 -300 0
299 363 -298 0
-299 363 298 0
-299 -363 300 0
300 364 -374 0
300 -364 -375 0
-300 -364 375 0
-300 364 374 0
301 -362 302 0
-301 362 0
-301 -302 0
302 -363 -246 0
302 363 -303 0
-302 363 303 0
-302 -363 246 0
303 364 -388 0
303 -364 -389 0
-303 -364 389 0
-303 364 388 0
-304 361 305 0
304 -361 0
304 -305 0
305 362 -306 0
305 -362 -247 0
-305 -362 247 0
-305 362 306 0
-306 -363 307 0
-306 363 266 269 0
306 363 -266 0
306 -363 -307 0
306 363 -269 0
-307 -364 385 386 0
-307 364 384 385 0
307 -385 0
307 364 -384 0
307 -364 -386 0
-308 281 309 0
308 -281 0
308 -309 0
309 -362 -279 0
309 362 -302 0
-309 362 302 0
-309 -362 279 0
310 363 -311 0
310 -363 -312 0
-310 -363 312 0
-310 363 311 0
311 364 -369 0
311 -364 -370 0
-311 -364 370 0
-311 364 369 0
312 364 -371 0
312 -364 -372 0
-312 -364 372 0
-312 364 371 0
-313 314 328 329 0
-313 360 314 328 0
313 -328 0
313 -314 0
313 -360 -329 0
314 315 -327 0
314 -360 315 0
314 315 -321 0
-314 -315 0
-314 360 321 327 0
315 -361 -316 319 0
315 235 -316 319 0
-315 -319 0
-315 316 0
-315 361 -235 0
316 -234 -318 0
316 241 317 -318 0
-316 318 0
-316 234 -241 0
-316 234 -317 0
317 -362 -231 0
317 362 -254 0
-317 362 254 0
-317 -362 231 0
318 -360 -361 0
318 -360 118 308 0
-318 360 0
-318 361 -308 0
-318 361 -118 0
-319 361 230 320 0
-319 -361 118 320 0
319 -320 0
319 361 -230 0
319 -361 -118 0
-320 -361 0
-320 237 278 0
320 361 -237 0
320 361 -278 0
321 -257 323 0
321 -361 323 0
321 -322 323 0
-321 -323 0
-321 361 257 322 0
-322 -362 270 0
-322 362 296 299 0
322 362 -299 0
322 -362 -270 0
322 362 -296 0
323 -361 309 324 326 0
-323 -324 0
-323 -326 0
-323 361 0
-323 -309 0
-324 242 305 325 0
324 -325 0
324 -305 0
324 -242 0
-325 251 287 0
-325 -362 251 302 0
325 -251 0
325 -287 -302 0
325 362 -287 0
326 -362 -252 0
326 362 -268 0
-326 362 268 0
-326 -362 252 0
327 -362 -288 0
327 362 -263 0
327 -362 -306 0
-327 362 263 0
-327 -362 288 306 0
-328 -361 317 0
-328 317 326 0
-328 -360 361 326 0
328 -361 -317 0
328 361 -326 0
328 360 -317 0
329 -230 -325 0
329 277 -304 0
329 277 -325 0
329 -230 -304 0
-329 230 -277 0
-329 304 325 0
330 331 -332 0
330 -331 332 0
-330 -331 -332 0
-330 331 332 0
331 -360 39 0
-331 360 0
-331 -39 0
332 -360 228 0
-332 360 0
-332 -228 0
-397 0
2 0

